;symbolic execution tree
(push)
(assert (le x0 java.lang.Object))
(check-sat)
(push)
(assert (le x1 java.lang.Object))
(check-sat)
(push)
(assert (= x1 java.lang.String))
(check-sat)
(push)
(assert (= x1 java.lang.String))
(check-sat)
(pop)
(push)
(assert (not (= x1 java.lang.String)))
(check-sat)
(pop)
(push)
(assert (not (le x0 weka.core.SerializedObject)))
(check-sat)
(push)
(assert (= x1 java.lang.String))
(check-sat)
(pop)
(push)
(assert (not (= x1 java.lang.String)))
(check-sat)
(pop)
(push)
(assert (= x0 java.lang.String))
(check-sat)
(push)
(assert (= x0 java.lang.String))
(check-sat)
(pop)
(push)
(assert (not (= x0 java.lang.String)))
(check-sat)
(pop)
(pop)
(push)
(assert (not (= x0 java.lang.String)))
(check-sat)
(push)
(assert (= x0 java.lang.String))
(check-sat)
(pop)
(push)
(assert (not (= x0 java.lang.String)))
(check-sat)
(pop)
(pop)
(push)
(assert (= x1 java.lang.String))
(check-sat)
(push)
(assert (= x0 java.lang.String))
(check-sat)
(pop)
(push)
(assert (not (= x0 java.lang.String)))
(check-sat)
(push)
(assert (= x1 java.lang.String))
(check-sat)
(pop)
(push)
(assert (not (= x1 java.lang.String)))
(check-sat)
(pop)
(pop)
(push)
(assert (= x0 java.lang.String))
(check-sat)
(pop)
(push)
(assert (not (= x0 java.lang.String)))
(check-sat)
(pop)
(push)
(assert (= x0 java.lang.String))
(check-sat)
(push)
(assert (= x0 java.lang.String))
(check-sat)
(pop)
(push)
(assert (not (= x0 java.lang.String)))
(check-sat)
(pop)
(pop)
(push)
(assert (not (= x0 java.lang.String)))
(check-sat)
(pop)
(pop)
(push)
(assert (not (= x1 java.lang.String)))
(check-sat)
(pop)
(pop)
(push)
(assert (le x0 weka.core.SerializedObject))
(check-sat)
(push)
(assert (= x1 java.lang.String))
(check-sat)
(pop)
(push)
(assert (not (= x1 java.lang.String)))
(check-sat)
(pop)
(push)
(assert (= x0 java.lang.String))
(check-sat)
(push)
(assert (= x0 java.lang.String))
(check-sat)
(push)
(assert (= x0 java.lang.String))
(check-sat)
(pop)
(push)
(assert (not (= x0 java.lang.String)))
(check-sat)
(pop)
(pop)
(push)
(assert (not (= x0 java.lang.String)))
(check-sat)
(pop)
(pop)
(push)
(assert (not (= x0 java.lang.String)))
(check-sat)
(push)
(assert (= x1 java.lang.String))
(check-sat)
(pop)
(push)
(assert (not (= x1 java.lang.String)))
(check-sat)
(pop)
(push)
(assert (= x0 java.lang.String))
(check-sat)
(pop)
(push)
(assert (not (= x0 java.lang.String)))
(check-sat)
(pop)
(push)
(assert (= x0 java.lang.String))
(check-sat)
(pop)
(push)
(assert (not (= x0 java.lang.String)))
(check-sat)
(pop)
(push)
(assert (= x0 java.lang.String))
(check-sat)
(pop)
(push)
(assert (not (= x0 java.lang.String)))
(check-sat)
(pop)
(push)
(assert (= x0 java.lang.String))
(check-sat)
(pop)
(push)
(assert (not (= x0 java.lang.String)))
(check-sat)
(pop)
(push)
(assert (= x0 java.lang.String))
(check-sat)
(pop)
(push)
(assert (not (= x0 java.lang.String)))
(check-sat)
(pop)
(pop)
(pop)
(push)
(assert (= x1 java.lang.String))
(check-sat)
(push)
(assert (le x0 weka.core.Queue_currencysign_QueueNode))
(check-sat)
(pop)
(push)
(assert (not (le x0 weka.core.Queue_currencysign_QueueNode)))
(check-sat)
(push)
(assert (le x0 weka.core.Queue_currencysign_QueueNode))
(check-sat)
(pop)
(push)
(assert (not (le x0 weka.core.Queue_currencysign_QueueNode)))
(check-sat)
(push)
(assert (le x0 weka.core.Queue_currencysign_QueueNode))
(check-sat)
(pop)
(push)
(assert (not (le x0 weka.core.Queue_currencysign_QueueNode)))
(check-sat)
(pop)
(pop)
(pop)
(pop)
(push)
(assert (not (= x1 java.lang.String)))
(check-sat)
(pop)
(push)
(assert (le x0 weka.core.Instances))
(check-sat)
(push)
(assert (= x1 java.lang.String))
(check-sat)
(push)
(assert (le x0 weka.core.Instances))
(check-sat)
(pop)
(push)
(assert (not (le x0 weka.core.Instances)))
(check-sat)
(pop)
(pop)
(push)
(assert (not (= x1 java.lang.String)))
(check-sat)
(pop)
(push)
(assert (le x0 weka.core.Instances))
(check-sat)
(push)
(assert (= x1 java.lang.String))
(check-sat)
(pop)
(push)
(assert (not (= x1 java.lang.String)))
(check-sat)
(pop)
(pop)
(push)
(assert (not (le x0 weka.core.Instances)))
(check-sat)
(pop)
(push)
(assert (le x0 weka.core.Instances))
(check-sat)
(push)
(assert (le x0 weka.core.Instances))
(check-sat)
(pop)
(push)
(assert (not (le x0 weka.core.Instances)))
(check-sat)
(pop)
(push)
(assert (= x1 java.lang.String))
(check-sat)
(pop)
(push)
(assert (not (= x1 java.lang.String)))
(check-sat)
(pop)
(push)
(assert (= x1 java.lang.String))
(check-sat)
(pop)
(push)
(assert (not (= x1 java.lang.String)))
(check-sat)
(pop)
(pop)
(push)
(assert (not (le x0 weka.core.Instances)))
(check-sat)
(pop)
(pop)
(push)
(assert (not (le x0 weka.core.Instances)))
(check-sat)
(push)
(assert (le x0 weka.core.Instances))
(check-sat)
(pop)
(push)
(assert (not (le x0 weka.core.Instances)))
(check-sat)
(pop)
(pop)
(push)
(assert (= x1 java.lang.String))
(check-sat)
(pop)
(push)
(assert (not (= x1 java.lang.String)))
(check-sat)
(pop)
(push)
(assert (= x1 java.lang.String))
(check-sat)
(push)
(assert (le x0 weka.core.Instances))
(check-sat)
(push)
(assert (= x1 java.lang.String))
(check-sat)
(pop)
(push)
(assert (not (= x1 java.lang.String)))
(check-sat)
(pop)
(pop)
(push)
(assert (not (le x0 weka.core.Instances)))
(check-sat)
(pop)
(pop)
(push)
(assert (not (= x1 java.lang.String)))
(check-sat)
(pop)
(push)
(assert (= x1 java.lang.String))
(check-sat)
(pop)
(push)
(assert (not (= x1 java.lang.String)))
(check-sat)
(pop)
(push)
(assert (= x0 java.lang.StringBuffer))
(check-sat)
(push)
(assert (= x0 java.lang.StringBuffer))
(check-sat)
(push)
(assert (= x0 java.lang.StringBuffer))
(check-sat)
(pop)
(push)
(assert (not (= x0 java.lang.StringBuffer)))
(check-sat)
(pop)
(pop)
(push)
(assert (not (= x0 java.lang.StringBuffer)))
(check-sat)
(pop)
(push)
(assert (= x1 java.lang.String))
(check-sat)
(push)
(assert (= x1 java.lang.String))
(check-sat)
(pop)
(push)
(assert (not (= x1 java.lang.String)))
(check-sat)
(pop)
(pop)
(push)
(assert (not (= x1 java.lang.String)))
(check-sat)
(pop)
(push)
(assert (= x0 java.lang.StringBuffer))
(check-sat)
(pop)
(push)
(assert (not (= x0 java.lang.StringBuffer)))
(check-sat)
(pop)
(push)
(assert (= x1 java.lang.String))
(check-sat)
(pop)
(push)
(assert (not (= x1 java.lang.String)))
(check-sat)
(pop)
(push)
(assert (= x1 java.lang.String))
(check-sat)
(push)
(assert (= x1 java.lang.String))
(check-sat)
(pop)
(push)
(assert (not (= x1 java.lang.String)))
(check-sat)
(pop)
(pop)
(push)
(assert (not (= x1 java.lang.String)))
(check-sat)
(pop)
(pop)
(push)
(assert (not (= x0 java.lang.StringBuffer)))
(check-sat)
(pop)
(push)
(assert (= x1 java.lang.String))
(check-sat)
(push)
(assert (= x0 java.lang.Boolean))
(check-sat)
(push)
(assert (= x0 java.lang.Boolean))
(check-sat)
(pop)
(push)
(assert (not (= x0 java.lang.Boolean)))
(check-sat)
(pop)
(pop)
(push)
(assert (not (= x0 java.lang.Boolean)))
(check-sat)
(pop)
(pop)
(push)
(assert (not (= x1 java.lang.String)))
(check-sat)
(pop)
(pop)
(push)
(assert (not (= x1 java.lang.String)))
(check-sat)
(push)
(assert (le x0 weka.core.Instances))
(check-sat)
(pop)
(push)
(assert (not (le x0 weka.core.Instances)))
(check-sat)
(push)
(assert (= x1 java.lang.String))
(check-sat)
(pop)
(push)
(assert (not (= x1 java.lang.String)))
(check-sat)
(push)
(assert (le x0 weka.core.Instances))
(check-sat)
(pop)
(push)
(assert (not (le x0 weka.core.Instances)))
(check-sat)
(push)
(assert (= x1 java.lang.String))
(check-sat)
(pop)
(push)
(assert (not (= x1 java.lang.String)))
(check-sat)
(pop)
(pop)
(pop)
(push)
(assert (= x1 java.lang.String))
(check-sat)
(pop)
(push)
(assert (not (= x1 java.lang.String)))
(check-sat)
(push)
(assert (= x1 java.lang.String))
(check-sat)
(pop)
(push)
(assert (not (= x1 java.lang.String)))
(check-sat)
(pop)
(pop)
(push)
(assert (= x1 java.lang.String))
(check-sat)
(pop)
(push)
(assert (not (= x1 java.lang.String)))
(check-sat)
(pop)
(pop)
(push)
(assert (le x0 weka.filters.unsupervised.instance.RemoveFolds))
(check-sat)
(push)
(assert (= x1 java.lang.String))
(check-sat)
(pop)
(push)
(assert (not (= x1 java.lang.String)))
(check-sat)
(pop)
(push)
(assert (le x1 weka.core.Queue_currencysign_QueueNode))
(check-sat)
(pop)
(push)
(assert (not (le x1 weka.core.Queue_currencysign_QueueNode)))
(check-sat)
(push)
(assert (le x1 weka.core.Queue_currencysign_QueueNode))
(check-sat)
(pop)
(push)
(assert (not (le x1 weka.core.Queue_currencysign_QueueNode)))
(check-sat)
(pop)
(push)
(assert (le x1 weka.core.Queue_currencysign_QueueNode))
(check-sat)
(pop)
(push)
(assert (not (le x1 weka.core.Queue_currencysign_QueueNode)))
(check-sat)
(pop)
(push)
(assert (le x1 weka.core.Queue_currencysign_QueueNode))
(check-sat)
(pop)
(push)
(assert (not (le x1 weka.core.Queue_currencysign_QueueNode)))
(check-sat)
(pop)
(pop)
(pop)
(push)
(assert (not (le x0 weka.filters.unsupervised.instance.RemoveFolds)))
(check-sat)
(pop)
(push)
(assert (= x1 java.lang.String))
(check-sat)
(pop)
(push)
(assert (not (= x1 java.lang.String)))
(check-sat)
(pop)
(push)
(assert (= x1 java.lang.String))
(check-sat)
(pop)
(push)
(assert (not (= x1 java.lang.String)))
(check-sat)
(push)
(assert (le x0 weka.classifiers.Evaluation))
(check-sat)
(pop)
(push)
(assert (not (le x0 weka.classifiers.Evaluation)))
(check-sat)
(pop)
(pop)
(push)
(assert (le x0 weka.core.Instance))
(check-sat)
(push)
(assert (= x1 java.lang.String))
(check-sat)
(pop)
(push)
(assert (not (= x1 java.lang.String)))
(check-sat)
(push)
(assert (= x1 java.lang.String))
(check-sat)
(pop)
(push)
(assert (not (= x1 java.lang.String)))
(check-sat)
(pop)
(pop)
(pop)
(push)
(assert (not (le x0 weka.core.Instance)))
(check-sat)
(pop)
(push)
(assert (= x0 java.lang.StringBuilder))
(check-sat)
(pop)
(push)
(assert (not (= x0 java.lang.StringBuilder)))
(check-sat)
(push)
(assert (= x0 java.lang.StringBuilder))
(check-sat)
(pop)
(push)
(assert (not (= x0 java.lang.StringBuilder)))
(check-sat)
(pop)
(pop)
(push)
(assert (= x1 java.lang.String))
(check-sat)
(pop)
(push)
(assert (not (= x1 java.lang.String)))
(check-sat)
(push)
(assert (= x1 java.lang.String))
(check-sat)
(pop)
(push)
(assert (not (= x1 java.lang.String)))
(check-sat)
(push)
(assert (le x0 java.lang.Object))
(check-sat)
(pop)
(push)
(assert (not (le x0 java.lang.Object)))
(check-sat)
(pop)
(push)
(assert (= x1 java.lang.String))
(check-sat)
(pop)
(push)
(assert (not (= x1 java.lang.String)))
(check-sat)
(pop)
(pop)
(pop)
(push)
(assert (= x1 java.lang.String))
(check-sat)
(pop)
(push)
(assert (not (= x1 java.lang.String)))
(check-sat)
(push)
(assert (= x0 java.lang.String))
(check-sat)
(pop)
(push)
(assert (not (= x0 java.lang.String)))
(check-sat)
(push)
(assert (= x1 java.lang.String))
(check-sat)
(pop)
(push)
(assert (not (= x1 java.lang.String)))
(check-sat)
(pop)
(pop)
(push)
(assert (= x1 java.lang.String))
(check-sat)
(pop)
(push)
(assert (not (= x1 java.lang.String)))
(check-sat)
(pop)
(pop)
(push)
(assert (= x1 java.lang.String))
(check-sat)
(pop)
(push)
(assert (not (= x1 java.lang.String)))
(check-sat)
(push)
(assert (le x0 java.util.HashSet))
(check-sat)
(pop)
(push)
(assert (not (le x0 java.util.HashSet)))
(check-sat)
(pop)
(pop)
(push)
(assert (le x0 weka.core.Instance))
(check-sat)
(push)
(assert (= x1 java.lang.String))
(check-sat)
(pop)
(push)
(assert (not (= x1 java.lang.String)))
(check-sat)
(pop)
(push)
(assert (= x1 java.lang.String))
(check-sat)
(pop)
(push)
(assert (not (= x1 java.lang.String)))
(check-sat)
(push)
(assert (le x0 weka.core.Instance))
(check-sat)
(pop)
(push)
(assert (not (le x0 weka.core.Instance)))
(check-sat)
(pop)
(push)
(assert (le x0 weka.core.Instance))
(check-sat)
(pop)
(push)
(assert (not (le x0 weka.core.Instance)))
(check-sat)
(pop)
(pop)
(push)
(assert (not (le x0 weka.core.SparseInstance)))
(check-sat)
(push)
(assert (le x0 weka.core.Instance))
(check-sat)
(pop)
(pop)
(push)
(assert (le x0 weka.core.SparseInstance))
(check-sat)
(pop)
(pop)
(push)
(assert (not (le x0 weka.core.Instance)))
(check-sat)
(pop)
(pop)
